8380
13, 27, 26, 28, 47, 29, 30, 2, 7, 42, 21, 17, 3, 18, 31, 23, 20, 50, 16, 46, 44, 34, 37, 48, 24, 15, 43, 33, 10, 9, 41, 8, 45, 19, 32, 22, 1, 49, 35, 36, 39, 40, 38, 5, 6, 4, 25, 12, 51, 11, 52, 14
